29
32
30
28
30
32
30
30
35
30
32
31
31
32
30
29
33
35
38
29
16
16
17
19
16
20
15
19
17
16
17
17
17
21
16
19
20
21
16
18
19
21
23
20
21
23
23
23
19
22
21
21
21
22
21
18
20
20
21
22
21
22
25
22
23
21
23
23
23
22
24
21
21
21
22
25
25
22
22
24
48
49
46
50
58
50
60
52
62
59
55
55
46
48
48
54
46
56
45
52
